(declare-fun bvlambda_12_ ()Bool         )
(declare-fun bvlambda_32_ ()Bool         )
(declare-fun bvlambda_38_ ()Bool         )
(declare-fun bvlambda_45_ ()Bool         )
(declare-fun bvlambda_46_ ()Bool         )
(declare-fun bvlambda_47_ ()Bool         )
(declare-fun bvlambda_51_ ()Bool         )
(declare-fun bvlambda_52_ ()Bool         )
(declare-fun a165 () (Array (_ BitVec 1) (_ BitVec 3)))
(assert
(let (($e51 (_ bv6 3)))
(let (($e305 (concat bvlambda_45_ bvlambda_46_)))
(let (($e306 (concat $e305 bvlambda_47_)))
(let (($e307 (store a165 true        $e306)))
(let (($e331 (concat bvlambda_38_ bvlambda_51_)))
(let (($e332 (concat $e331 bvlambda_52_)))
(let (($e333 (store $e307 bvlambda_12_ $e332)))
(let (($e389 (select $e307 bvlambda_32_)))
(let (($e512                          $e389 ))
(let (($e513        (bvnot $e51)               ))
(let (($e515                    $e513       ))
(let (($e516 (bvudiv $e515 $e512)))
(let (($e521                          $e516 ))
(let (($e522 (select $e333 true       )))
                  (bvult $e522 $e521)
                                                                                                                                                                                                                                                                                                                                                                                                                                                                                                                                                                                                                                                                                                                                                                                                                                                                                                                                                                                                                                                                                                                                                                                                                                                                                                                                                                                                                                                                                                                                                                                                                                                                                                                                                                                                                                                                                                                                                                                                                                                                                                                                                                                                                                                                                                                                                                                                                             ))    )) ))                                                                                                                          )                                                       )))                       )))                                                                                                                                                                                                   )                                                  )
